# Solution for model r3_t18_m1_0
# Finished Task: 18 / 18
# Makespan: 717.0, Total Distance: 1271.0, Total Time: 0.4388
# R O S F
0 0 19 0.0 0.0
1 1 11 0.0 0.0
2 2 12 0.0 0.0
3 1 14 236.0 259.0
4 0 18 317.0 353.0
5 1 16 442.0 473.0
6 2 10 332.0 367.0
7 0 15 510.0 546.0
8 2 6 288.0 323.0
9 0 -1 605.0 627.0
10 2 13 463.0 492.0
11 1 3 132.0 165.0
12 2 20 89.0 115.0
13 2 -1 573.0 612.0
14 1 5 313.0 347.0
15 0 9 555.0 576.0
16 1 17 591.0 612.0
17 1 -1 697.0 717.0
18 0 7 360.0 394.0
19 0 4 162.0 190.0
20 2 8 178.0 212.0
